Data path: /scratch/opt/lxu/CFLG/benchmarks/city
Instance: city_771.txt
Result path: /scratch/opt/lxu/CFLG/results/city
Solver: CPLEX
Time limit: 3600
Formulation: LEFPD
Cover: Small
julia --project=. src/main.jl /scratch/opt/lxu/CFLG/benchmarks/city city_771.txt /scratch/opt/lxu/CFLG/results/city CPLEX 3600 LEFPD Small
/scratch/opt/lxu/CFLG/benchmarks/city CPLEX 3600.0 /scratch/opt/lxu/CFLG/results/city city_771.txt LEFPD Small
/scratch/opt/lxu/CFLG/benchmarks/city/city_771.txt

 read graph
data loaded


after absorb:505 592

max_piece:10
problem_graph/original graph: node: 755/592 edge: 934/771 dlt: 0.19670043637674384 break_avg_len: 0.16237263002834018 break_max_len: 1.8109339407744875elapsed CPU time: 0.511317 seconds
formulation:LEFPD70 864 642

 model loaded

Version identifier: 12.10.0.0 | 2019-11-26 | 843d4de
CPXPARAM_ClockType                               1
CPXPARAM_Threads                                 1
CPXPARAM_TimeLimit                               3599.488683
CPXPARAM_MIP_Tolerances_AbsMIPGap                1
Tried aggregator 2 times.
MIP Presolve eliminated 11703 rows and 1005 columns.
MIP Presolve modified 2392 coefficients.
Aggregator did 1551 substitutions.
Reduced MIP has 34843 rows, 20004 columns, and 105267 nonzeros.
Reduced MIP has 10031 binaries, 0 generals, 0 SOSs, and 0 indicators.
Presolve time = 0.13 sec. (102.67 ticks)
Found incumbent of value 1065.000000 after 0.17 sec. (130.02 ticks)
Probing fixed 3306 vars, tightened 7428 bounds.
Probing changed sense of 25 constraints.
Probing time = 0.29 sec. (114.22 ticks)
Cover probing fixed 0 vars, tightened 57 bounds.
Tried aggregator 3 times.
MIP Presolve eliminated 17328 rows and 10015 columns.
MIP Presolve modified 2793 coefficients.
Aggregator did 294 substitutions.
Reduced MIP has 17221 rows, 9694 columns, and 48726 nonzeros.
Reduced MIP has 5569 binaries, 0 generals, 0 SOSs, and 0 indicators.
Presolve time = 0.18 sec. (128.19 ticks)
Probing fixed 202 vars, tightened 306 bounds.
Probing changed sense of 7 constraints.
Probing time = 0.18 sec. (56.66 ticks)
Cover probing fixed 2 vars, tightened 209 bounds.
Tried aggregator 3 times.
Detecting symmetries...
MIP Presolve eliminated 978 rows and 479 columns.
MIP Presolve modified 834 coefficients.
Aggregator did 111 substitutions.
Reduced MIP has 16132 rows, 9104 columns, and 45641 nonzeros.
Reduced MIP has 5219 binaries, 0 generals, 0 SOSs, and 0 indicators.
Presolve time = 0.16 sec. (107.61 ticks)
Probing fixed 144 vars, tightened 134 bounds.
Probing changed sense of 6 constraints.
Probing time = 0.14 sec. (50.04 ticks)
Cover probing fixed 0 vars, tightened 6 bounds.
Clique table members: 30474.
MIP emphasis: balance optimality and feasibility.
MIP search method: dynamic search.
Parallel mode: none, using 1 thread.
Root relaxation solution time = 0.58 sec. (438.02 ticks)

        Nodes                                         Cuts/
   Node  Left     Objective  IInf  Best Integer    Best Bound    ItCnt     Gap

*     0+    0                         1056.0000      243.0000            76.99%
      0     0      337.7283  1791     1056.0000      337.7283     7800   68.02%
      0     0      382.2153  1791     1056.0000    Cuts: 2938    12944   63.81%
      0     0      395.2469  1791     1056.0000    Cuts: 1188    16025   62.57%
      0     0      402.4982  1791     1056.0000    Cuts: 1142    18357   61.88%
      0     0      406.3908  1791     1056.0000     Cuts: 890    20170   61.52%
      0     0      409.2946  1791     1056.0000     Cuts: 700    21862   61.24%
      0     0      411.7675  1791     1056.0000     Cuts: 682    23275   61.01%
      0     0      413.9339  1791     1056.0000     Cuts: 591    25143   60.80%
      0     0      415.4689  1791     1056.0000     Cuts: 634    26597   60.66%
      0     0      416.6250  1791     1056.0000     Cuts: 599    28455   60.55%
      0     0      417.2072  1791     1056.0000     Cuts: 532    29515   60.49%
      0     0      417.6502  1791     1056.0000     Cuts: 505    30496   60.45%
      0     0      418.4245  1791     1056.0000     Cuts: 380    32016   60.38%
      0     0      418.9094  1791     1056.0000     Cuts: 471    33023   60.33%
      0     0      419.3275  1791     1056.0000     Cuts: 462    33806   60.29%
      0     0      419.7250  1791     1056.0000     Cuts: 463    34917   60.25%
      0     0      420.1694  1791     1056.0000     Cuts: 447    35752   60.21%
      0     0      420.7239  1791     1056.0000     Cuts: 406    36816   60.16%
      0     0      421.2458  1791     1056.0000     Cuts: 368    37803   60.11%
      0     0      421.4971  1791     1056.0000     Cuts: 403    39007   60.09%
      0     0      421.6946  1791     1056.0000     Cuts: 381    40387   60.07%
      0     0      421.9765  1791     1056.0000     Cuts: 362    41661   60.04%
      0     0      422.3583  1791     1056.0000     Cuts: 413    42571   60.00%
      0     0      422.6254  1791     1056.0000     Cuts: 386    43671   59.98%
      0     0      422.9665  1791     1056.0000     Cuts: 354    44498   59.95%
      0     0      423.1528  1791     1056.0000     Cuts: 400    45350   59.93%
      0     0      423.2530  1791     1056.0000     Cuts: 314    46157   59.92%
      0     0      423.4109  1791     1056.0000     Cuts: 416    47630   59.90%
      0     0      423.6881  1791     1056.0000     Cuts: 397    48700   59.88%
      0     0      424.0041  1791     1056.0000     Cuts: 431    50192   59.85%
      0     0      424.0787  1791     1056.0000     Cuts: 409    50957   59.84%
      0     2      424.0787  1571     1056.0000      424.1058    50957   59.84%
Elapsed time = 16.30 sec. (10613.85 ticks, tree = 0.01 MB, solutions = 3)
     23    25      426.3333  1401     1056.0000      424.2395    51649   59.83%
     35    35      426.9420  1363     1056.0000      424.2395    52671   59.83%
     45    43      427.0141  1317     1056.0000      424.2395    53595   59.83%
     50    48      427.0767  1299     1056.0000      424.2395    54644   59.83%
     55    53      427.2966  1277     1056.0000      424.2395    56416   59.83%
     70    68      427.8576  1242     1056.0000      424.2395    57368   59.83%
     80    74      428.9148  1163     1056.0000      424.2395    57720   59.83%
     98    90      431.5609  1029     1056.0000      424.2395    59683   59.83%
    101    93      432.3551  1076     1056.0000      424.2395    60365   59.83%
    192   175      439.6200   551     1056.0000      424.2395    67071   59.83%
Elapsed time = 20.22 sec. (14078.51 ticks, tree = 2.04 MB, solutions = 3)
    283   250      424.9721  1321     1056.0000      424.2850    71052   59.82%
    347   313      431.9502   768     1056.0000      424.2850    77422   59.82%
    480   442      451.1110   103     1056.0000      424.2850    80298   59.82%

Performing restart 1

Repeating presolve.
Tried aggregator 2 times.
MIP Presolve eliminated 467 rows and 282 columns.
MIP Presolve modified 1722 coefficients.
Aggregator did 91 substitutions.
Reduced MIP has 15574 rows, 8731 columns, and 44085 nonzeros.
Reduced MIP has 4987 binaries, 0 generals, 0 SOSs, and 0 indicators.
Presolve time = 0.10 sec. (69.55 ticks)
Tried aggregator 2 times.
MIP Presolve eliminated 42 rows and 25 columns.
MIP Presolve modified 121 coefficients.
Aggregator did 2 substitutions.
Reduced MIP has 15530 rows, 8704 columns, and 43949 nonzeros.
Reduced MIP has 4978 binaries, 0 generals, 0 SOSs, and 0 indicators.
Presolve time = 0.06 sec. (39.68 ticks)
Represolve time = 0.47 sec. (215.43 ticks)
    490     0      428.2048  1502     1056.0000    Cuts: 1203    97833   59.45%
    490     0      430.3941  1502     1056.0000     Cuts: 699   100265   59.24%
    490     0      431.4023  1502     1056.0000     Cuts: 683   101458   59.15%
    490     0      432.6597  1502     1056.0000     Cuts: 474   103572   59.03%
    490     0      434.1255  1502     1056.0000     Cuts: 408   105076   58.89%
    490     0      435.6562  1502     1056.0000     Cuts: 454   106943   58.74%
    490     0      436.0496  1502     1056.0000     Cuts: 379   107938   58.71%
    490     0      436.5076  1502     1056.0000     Cuts: 301   109425   58.66%
    490     0      436.8163  1502     1056.0000     Cuts: 331   110071   58.63%
    490     0      436.9069  1502     1056.0000     Cuts: 223   110525   58.63%
    490     0      437.1135  1502     1056.0000     Cuts: 260   111187   58.61%
    490     0      437.2894  1502     1056.0000     Cuts: 257   111913   58.59%
    490     0      437.6600  1502     1056.0000     Cuts: 269   112771   58.55%
    490     0      437.9857  1502     1056.0000     Cuts: 306   113587   58.52%
    490     0      438.1143  1502     1056.0000     Cuts: 272   114042   58.51%
    490     0      438.4895  1502     1056.0000     Cuts: 239   114635   58.48%
    490     0      438.6726  1502     1056.0000     Cuts: 208   115425   58.46%
    490     0      439.2341  1502     1056.0000     Cuts: 284   115897   58.41%
    490     0      439.4709  1502     1056.0000     Cuts: 196   117310   58.38%
    490     0      439.5999  1502     1056.0000     Cuts: 279   118007   58.37%
    490     0      439.6960  1502     1056.0000     Cuts: 264   118957   58.36%
    490     0      439.7174  1502     1056.0000     Cuts: 211   119553   58.36%
    490     0      439.7578  1502     1056.0000     Cuts: 276   120231   58.36%
    490     0      439.9146  1502     1056.0000     Cuts: 245   120841   58.34%
    490     0      440.2119  1502     1056.0000     Cuts: 291   121518   58.31%
    490     0      440.3954  1502     1056.0000     Cuts: 271   122230   58.30%
    490     0      440.5391  1502     1056.0000     Cuts: 258   122947   58.28%
    490     0      440.8448  1502     1056.0000     Cuts: 202   123221   58.25%
    490     0      441.0291  1502     1056.0000     Cuts: 170   123544   58.24%
    490     0      441.4584  1502     1056.0000     Cuts: 200   124062   58.20%
    490     0      441.5507  1502     1056.0000     Cuts: 216   124503   58.19%
    490     0      441.7699  1502     1056.0000     Cuts: 208   125105   58.17%
    490     0      441.8819  1502     1056.0000     Cuts: 210   125513   58.16%
    490     0      441.9049  1502     1056.0000     Cuts: 162   125883   58.15%
    490     2      441.9049   750     1056.0000      441.9767   125883   58.15%
    530    42      442.9999    41     1056.0000      442.0484   128797   58.14%
*   590+   95                          451.0000      442.0484             1.98%
*   600+  103                          450.0000      442.0484             1.77%
*   610    98      integral     0      448.9999      442.0484   132024    1.55%
    653   127      442.7253   634      448.9999      442.4142   135546    1.47%
    680   146      445.6266   586      448.9999      442.5715   139541    1.43%
    730   176      445.3099   433      448.9999      442.6190   144085    1.42%
    810   238      445.0959   478      448.9999      442.6253   147689    1.42%
Elapsed time = 54.56 sec. (44050.82 ticks, tree = 3.20 MB, solutions = 6)
    856   270      443.3276   409      448.9999      442.6331   151377    1.42%
*   910+  185                          446.0000      442.6739             0.75%
*   925   120      integral     0      445.0000      442.6739   154666    0.52%
    927   119      443.0290   486      445.0000      442.6765   155605    0.52%
    967   137      443.1942   366      445.0000      442.7370   161171    0.51%
   1007   161      443.9745   281      445.0000      442.7690   166435    0.50%
   1047   171      443.0091   502      445.0000      442.8180   172458    0.49%
   1080   177      443.7438   434      445.0000      442.9134   180089    0.47%
   1120   180      443.5125   407      445.0000      442.9818   184122    0.45%
   1163   181      443.8164   416      445.0000      442.9972   189658    0.45%
   1213   198      443.4334   227      445.0000      442.9998   195307    0.45%
   1264   201      443.2798   158      445.0000      442.9999   201188    0.45%
Elapsed time = 64.90 sec. (53895.87 ticks, tree = 1.83 MB, solutions = 8)
   1293   202      443.7583   278      445.0000      443.0536   205697    0.44%
   1344   206      443.3596   437      445.0000      443.1048   210680    0.43%
   1402   216      443.6174   242      445.0000      443.1700   215406    0.41%
   1439   223      443.8628   343      445.0000      443.2227   220249    0.40%
   1472   224        cutoff            445.0000      443.2803   224701    0.39%
   1505   224      443.4299   649      445.0000      443.3363   228398    0.37%
   1545   226      443.7568   415      445.0000      443.3918   232712    0.36%
   1578   220        cutoff            445.0000      443.4334   238296    0.35%
   1608   214      443.8634   308      445.0000      443.4575   242217    0.35%
   1637   202      443.9141   370      445.0000      443.4788   246475    0.34%
Elapsed time = 75.52 sec. (63768.36 ticks, tree = 2.41 MB, solutions = 8)
   1685   187        cutoff            445.0000      443.4983   250389    0.34%
   1725   173      443.6993   454      445.0000      443.5222   254505    0.33%
   1782   147        cutoff            445.0000      443.6174   259909    0.31%
   1828   148      443.6311   560      445.0000      443.6317   265469    0.31%
   1886   142      443.8768   410      445.0000      443.6553   273109    0.30%
   1947   139      443.8184   479      445.0000      443.6765   280764    0.30%
   2018   108        cutoff            445.0000      443.7498   286445    0.28%
   2080    90      443.9308   413      445.0000      443.7966   293052    0.27%
   2171    40        cutoff            445.0000      443.9217   298688    0.24%
Stat(MathOptInterface.OPTIMAL, 444.99997604058586, 444.9999760405859, 0.0, 0.511317, 86.10492396354675, 2228, Main.CFLG.LEFPD, "", #undef)

GUB cover cuts applied:  228
Clique cuts applied:  494
Cover cuts applied:  52
Implied bound cuts applied:  470
Flow cuts applied:  303
Mixed integer rounding cuts applied:  480
Zero-half cuts applied:  416
Gomory fractional cuts applied:  25

Root node processing (before b&c):
  Real time             =   16.20 sec. (10553.21 ticks)
Sequential b&c:
  Real time             =   69.62 sec. (62556.90 ticks)
                          ------------
Total (root+branch&cut) =   85.82 sec. (73110.11 ticks)
